g3 1 1 0
 35 242 1 0 1 0
 241 1
 0 0
 34 0 0
 0 0 0 1
 0 0 0 0 0
 1083 1
 0 0
 0 0 0 0 0
C0
o54
6
o2
v0
v0
o2
n-2
o2
v1
v0
o2
v1
v1
o2
v16
v16
o2
n-2
o2
v17
v16
o2
v17
v17
C1
o54
6
o2
v0
v0
o2
n-2
o2
v2
v0
o2
v2
v2
o2
v16
v16
o2
n-2
o2
v18
v16
o2
v18
v18
C2
o54
6
o2
v0
v0
o2
n-2
o2
v3
v0
o2
v3
v3
o2
v16
v16
o2
n-2
o2
v19
v16
o2
v19
v19
C3
o54
6
o2
v0
v0
o2
n-2
o2
v4
v0
o2
v4
v4
o2
v16
v16
o2
n-2
o2
v20
v16
o2
v20
v20
C4
o54
6
o2
v0
v0
o2
n-2
o2
v5
v0
o2
v5
v5
o2
v16
v16
o2
n-2
o2
v21
v16
o2
v21
v21
C5
o54
6
o2
v0
v0
o2
n-2
o2
v6
v0
o2
v6
v6
o2
v16
v16
o2
n-2
o2
v22
v16
o2
v22
v22
C6
o54
6
o2
v0
v0
o2
n-2
o2
v7
v0
o2
v7
v7
o2
v16
v16
o2
n-2
o2
v23
v16
o2
v23
v23
C7
o54
6
o2
v0
v0
o2
n-2
o2
v8
v0
o2
v8
v8
o2
v16
v16
o2
n-2
o2
v24
v16
o2
v24
v24
C8
o54
6
o2
v0
v0
o2
n-2
o2
v9
v0
o2
v9
v9
o2
v16
v16
o2
n-2
o2
v25
v16
o2
v25
v25
C9
o54
6
o2
v0
v0
o2
n-2
o2
v10
v0
o2
v10
v10
o2
v16
v16
o2
n-2
o2
v26
v16
o2
v26
v26
C10
o54
6
o2
v0
v0
o2
n-2
o2
v11
v0
o2
v11
v11
o2
v16
v16
o2
n-2
o2
v27
v16
o2
v27
v27
C11
o54
6
o2
v0
v0
o2
n-2
o2
v12
v0
o2
v12
v12
o2
v16
v16
o2
n-2
o2
v28
v16
o2
v28
v28
C12
o54
6
o2
v0
v0
o2
n-2
o2
v13
v0
o2
v13
v13
o2
v16
v16
o2
n-2
o2
v29
v16
o2
v29
v29
C13
o54
6
o2
v0
v0
o2
n-2
o2
v14
v0
o2
v14
v14
o2
v16
v16
o2
n-2
o2
v30
v16
o2
v30
v30
C14
o54
6
o2
v0
v0
o2
n-2
o2
v15
v0
o2
v15
v15
o2
v16
v16
o2
n-2
o2
v31
v16
o2
v31
v31
C15
o54
6
o2
v1
v1
o2
n-2
o2
v2
v1
o2
v2
v2
o2
v17
v17
o2
n-2
o2
v18
v17
o2
v18
v18
C16
o54
6
o2
v1
v1
o2
n-2
o2
v3
v1
o2
v3
v3
o2
v17
v17
o2
n-2
o2
v19
v17
o2
v19
v19
C17
o54
6
o2
v1
v1
o2
n-2
o2
v4
v1
o2
v4
v4
o2
v17
v17
o2
n-2
o2
v20
v17
o2
v20
v20
C18
o54
6
o2
v1
v1
o2
n-2
o2
v5
v1
o2
v5
v5
o2
v17
v17
o2
n-2
o2
v21
v17
o2
v21
v21
C19
o54
6
o2
v1
v1
o2
n-2
o2
v6
v1
o2
v6
v6
o2
v17
v17
o2
n-2
o2
v22
v17
o2
v22
v22
C20
o54
6
o2
v1
v1
o2
n-2
o2
v7
v1
o2
v7
v7
o2
v17
v17
o2
n-2
o2
v23
v17
o2
v23
v23
C21
o54
6
o2
v1
v1
o2
n-2
o2
v8
v1
o2
v8
v8
o2
v17
v17
o2
n-2
o2
v24
v17
o2
v24
v24
C22
o54
6
o2
v1
v1
o2
n-2
o2
v9
v1
o2
v9
v9
o2
v17
v17
o2
n-2
o2
v25
v17
o2
v25
v25
C23
o54
6
o2
v1
v1
o2
n-2
o2
v10
v1
o2
v10
v10
o2
v17
v17
o2
n-2
o2
v26
v17
o2
v26
v26
C24
o54
6
o2
v1
v1
o2
n-2
o2
v11
v1
o2
v11
v11
o2
v17
v17
o2
n-2
o2
v27
v17
o2
v27
v27
C25
o54
6
o2
v1
v1
o2
n-2
o2
v12
v1
o2
v12
v12
o2
v17
v17
o2
n-2
o2
v28
v17
o2
v28
v28
C26
o54
6
o2
v1
v1
o2
n-2
o2
v13
v1
o2
v13
v13
o2
v17
v17
o2
n-2
o2
v29
v17
o2
v29
v29
C27
o54
6
o2
v1
v1
o2
n-2
o2
v14
v1
o2
v14
v14
o2
v17
v17
o2
n-2
o2
v30
v17
o2
v30
v30
C28
o54
6
o2
v1
v1
o2
n-2
o2
v15
v1
o2
v15
v15
o2
v17
v17
o2
n-2
o2
v31
v17
o2
v31
v31
C29
o54
6
o2
v2
v2
o2
n-2
o2
v3
v2
o2
v3
v3
o2
v18
v18
o2
n-2
o2
v19
v18
o2
v19
v19
C30
o54
6
o2
v2
v2
o2
n-2
o2
v4
v2
o2
v4
v4
o2
v18
v18
o2
n-2
o2
v20
v18
o2
v20
v20
C31
o54
6
o2
v2
v2
o2
n-2
o2
v5
v2
o2
v5
v5
o2
v18
v18
o2
n-2
o2
v21
v18
o2
v21
v21
C32
o54
6
o2
v2
v2
o2
n-2
o2
v6
v2
o2
v6
v6
o2
v18
v18
o2
n-2
o2
v22
v18
o2
v22
v22
C33
o54
6
o2
v2
v2
o2
n-2
o2
v7
v2
o2
v7
v7
o2
v18
v18
o2
n-2
o2
v23
v18
o2
v23
v23
C34
o54
6
o2
v2
v2
o2
n-2
o2
v8
v2
o2
v8
v8
o2
v18
v18
o2
n-2
o2
v24
v18
o2
v24
v24
C35
o54
6
o2
v2
v2
o2
n-2
o2
v9
v2
o2
v9
v9
o2
v18
v18
o2
n-2
o2
v25
v18
o2
v25
v25
C36
o54
6
o2
v2
v2
o2
n-2
o2
v10
v2
o2
v10
v10
o2
v18
v18
o2
n-2
o2
v26
v18
o2
v26
v26
C37
o54
6
o2
v2
v2
o2
n-2
o2
v11
v2
o2
v11
v11
o2
v18
v18
o2
n-2
o2
v27
v18
o2
v27
v27
C38
o54
6
o2
v2
v2
o2
n-2
o2
v12
v2
o2
v12
v12
o2
v18
v18
o2
n-2
o2
v28
v18
o2
v28
v28
C39
o54
6
o2
v2
v2
o2
n-2
o2
v13
v2
o2
v13
v13
o2
v18
v18
o2
n-2
o2
v29
v18
o2
v29
v29
C40
o54
6
o2
v2
v2
o2
n-2
o2
v14
v2
o2
v14
v14
o2
v18
v18
o2
n-2
o2
v30
v18
o2
v30
v30
C41
o54
6
o2
v2
v2
o2
n-2
o2
v15
v2
o2
v15
v15
o2
v18
v18
o2
n-2
o2
v31
v18
o2
v31
v31
C42
o54
6
o2
v3
v3
o2
n-2
o2
v4
v3
o2
v4
v4
o2
v19
v19
o2
n-2
o2
v20
v19
o2
v20
v20
C43
o54
6
o2
v3
v3
o2
n-2
o2
v5
v3
o2
v5
v5
o2
v19
v19
o2
n-2
o2
v21
v19
o2
v21
v21
C44
o54
6
o2
v3
v3
o2
n-2
o2
v6
v3
o2
v6
v6
o2
v19
v19
o2
n-2
o2
v22
v19
o2
v22
v22
C45
o54
6
o2
v3
v3
o2
n-2
o2
v7
v3
o2
v7
v7
o2
v19
v19
o2
n-2
o2
v23
v19
o2
v23
v23
C46
o54
6
o2
v3
v3
o2
n-2
o2
v8
v3
o2
v8
v8
o2
v19
v19
o2
n-2
o2
v24
v19
o2
v24
v24
C47
o54
6
o2
v3
v3
o2
n-2
o2
v9
v3
o2
v9
v9
o2
v19
v19
o2
n-2
o2
v25
v19
o2
v25
v25
C48
o54
6
o2
v3
v3
o2
n-2
o2
v10
v3
o2
v10
v10
o2
v19
v19
o2
n-2
o2
v26
v19
o2
v26
v26
C49
o54
6
o2
v3
v3
o2
n-2
o2
v11
v3
o2
v11
v11
o2
v19
v19
o2
n-2
o2
v27
v19
o2
v27
v27
C50
o54
6
o2
v3
v3
o2
n-2
o2
v12
v3
o2
v12
v12
o2
v19
v19
o2
n-2
o2
v28
v19
o2
v28
v28
C51
o54
6
o2
v3
v3
o2
n-2
o2
v13
v3
o2
v13
v13
o2
v19
v19
o2
n-2
o2
v29
v19
o2
v29
v29
C52
o54
6
o2
v3
v3
o2
n-2
o2
v14
v3
o2
v14
v14
o2
v19
v19
o2
n-2
o2
v30
v19
o2
v30
v30
C53
o54
6
o2
v3
v3
o2
n-2
o2
v15
v3
o2
v15
v15
o2
v19
v19
o2
n-2
o2
v31
v19
o2
v31
v31
C54
o54
6
o2
v4
v4
o2
n-2
o2
v5
v4
o2
v5
v5
o2
v20
v20
o2
n-2
o2
v21
v20
o2
v21
v21
C55
o54
6
o2
v4
v4
o2
n-2
o2
v6
v4
o2
v6
v6
o2
v20
v20
o2
n-2
o2
v22
v20
o2
v22
v22
C56
o54
6
o2
v4
v4
o2
n-2
o2
v7
v4
o2
v7
v7
o2
v20
v20
o2
n-2
o2
v23
v20
o2
v23
v23
C57
o54
6
o2
v4
v4
o2
n-2
o2
v8
v4
o2
v8
v8
o2
v20
v20
o2
n-2
o2
v24
v20
o2
v24
v24
C58
o54
6
o2
v4
v4
o2
n-2
o2
v9
v4
o2
v9
v9
o2
v20
v20
o2
n-2
o2
v25
v20
o2
v25
v25
C59
o54
6
o2
v4
v4
o2
n-2
o2
v10
v4
o2
v10
v10
o2
v20
v20
o2
n-2
o2
v26
v20
o2
v26
v26
C60
o54
6
o2
v4
v4
o2
n-2
o2
v11
v4
o2
v11
v11
o2
v20
v20
o2
n-2
o2
v27
v20
o2
v27
v27
C61
o54
6
o2
v4
v4
o2
n-2
o2
v12
v4
o2
v12
v12
o2
v20
v20
o2
n-2
o2
v28
v20
o2
v28
v28
C62
o54
6
o2
v4
v4
o2
n-2
o2
v13
v4
o2
v13
v13
o2
v20
v20
o2
n-2
o2
v29
v20
o2
v29
v29
C63
o54
6
o2
v4
v4
o2
n-2
o2
v14
v4
o2
v14
v14
o2
v20
v20
o2
n-2
o2
v30
v20
o2
v30
v30
C64
o54
6
o2
v4
v4
o2
n-2
o2
v15
v4
o2
v15
v15
o2
v20
v20
o2
n-2
o2
v31
v20
o2
v31
v31
C65
o54
6
o2
v5
v5
o2
n-2
o2
v6
v5
o2
v6
v6
o2
v21
v21
o2
n-2
o2
v22
v21
o2
v22
v22
C66
o54
6
o2
v5
v5
o2
n-2
o2
v7
v5
o2
v7
v7
o2
v21
v21
o2
n-2
o2
v23
v21
o2
v23
v23
C67
o54
6
o2
v5
v5
o2
n-2
o2
v8
v5
o2
v8
v8
o2
v21
v21
o2
n-2
o2
v24
v21
o2
v24
v24
C68
o54
6
o2
v5
v5
o2
n-2
o2
v9
v5
o2
v9
v9
o2
v21
v21
o2
n-2
o2
v25
v21
o2
v25
v25
C69
o54
6
o2
v5
v5
o2
n-2
o2
v10
v5
o2
v10
v10
o2
v21
v21
o2
n-2
o2
v26
v21
o2
v26
v26
C70
o54
6
o2
v5
v5
o2
n-2
o2
v11
v5
o2
v11
v11
o2
v21
v21
o2
n-2
o2
v27
v21
o2
v27
v27
C71
o54
6
o2
v5
v5
o2
n-2
o2
v12
v5
o2
v12
v12
o2
v21
v21
o2
n-2
o2
v28
v21
o2
v28
v28
C72
o54
6
o2
v5
v5
o2
n-2
o2
v13
v5
o2
v13
v13
o2
v21
v21
o2
n-2
o2
v29
v21
o2
v29
v29
C73
o54
6
o2
v5
v5
o2
n-2
o2
v14
v5
o2
v14
v14
o2
v21
v21
o2
n-2
o2
v30
v21
o2
v30
v30
C74
o54
6
o2
v5
v5
o2
n-2
o2
v15
v5
o2
v15
v15
o2
v21
v21
o2
n-2
o2
v31
v21
o2
v31
v31
C75
o54
6
o2
v6
v6
o2
n-2
o2
v7
v6
o2
v7
v7
o2
v22
v22
o2
n-2
o2
v23
v22
o2
v23
v23
C76
o54
6
o2
v6
v6
o2
n-2
o2
v8
v6
o2
v8
v8
o2
v22
v22
o2
n-2
o2
v24
v22
o2
v24
v24
C77
o54
6
o2
v6
v6
o2
n-2
o2
v9
v6
o2
v9
v9
o2
v22
v22
o2
n-2
o2
v25
v22
o2
v25
v25
C78
o54
6
o2
v6
v6
o2
n-2
o2
v10
v6
o2
v10
v10
o2
v22
v22
o2
n-2
o2
v26
v22
o2
v26
v26
C79
o54
6
o2
v6
v6
o2
n-2
o2
v11
v6
o2
v11
v11
o2
v22
v22
o2
n-2
o2
v27
v22
o2
v27
v27
C80
o54
6
o2
v6
v6
o2
n-2
o2
v12
v6
o2
v12
v12
o2
v22
v22
o2
n-2
o2
v28
v22
o2
v28
v28
C81
o54
6
o2
v6
v6
o2
n-2
o2
v13
v6
o2
v13
v13
o2
v22
v22
o2
n-2
o2
v29
v22
o2
v29
v29
C82
o54
6
o2
v6
v6
o2
n-2
o2
v14
v6
o2
v14
v14
o2
v22
v22
o2
n-2
o2
v30
v22
o2
v30
v30
C83
o54
6
o2
v6
v6
o2
n-2
o2
v15
v6
o2
v15
v15
o2
v22
v22
o2
n-2
o2
v31
v22
o2
v31
v31
C84
o54
6
o2
v7
v7
o2
n-2
o2
v8
v7
o2
v8
v8
o2
v23
v23
o2
n-2
o2
v24
v23
o2
v24
v24
C85
o54
6
o2
v7
v7
o2
n-2
o2
v9
v7
o2
v9
v9
o2
v23
v23
o2
n-2
o2
v25
v23
o2
v25
v25
C86
o54
6
o2
v7
v7
o2
n-2
o2
v10
v7
o2
v10
v10
o2
v23
v23
o2
n-2
o2
v26
v23
o2
v26
v26
C87
o54
6
o2
v7
v7
o2
n-2
o2
v11
v7
o2
v11
v11
o2
v23
v23
o2
n-2
o2
v27
v23
o2
v27
v27
C88
o54
6
o2
v7
v7
o2
n-2
o2
v12
v7
o2
v12
v12
o2
v23
v23
o2
n-2
o2
v28
v23
o2
v28
v28
C89
o54
6
o2
v7
v7
o2
n-2
o2
v13
v7
o2
v13
v13
o2
v23
v23
o2
n-2
o2
v29
v23
o2
v29
v29
C90
o54
6
o2
v7
v7
o2
n-2
o2
v14
v7
o2
v14
v14
o2
v23
v23
o2
n-2
o2
v30
v23
o2
v30
v30
C91
o54
6
o2
v7
v7
o2
n-2
o2
v15
v7
o2
v15
v15
o2
v23
v23
o2
n-2
o2
v31
v23
o2
v31
v31
C92
o54
6
o2
v8
v8
o2
n-2
o2
v9
v8
o2
v9
v9
o2
v24
v24
o2
n-2
o2
v25
v24
o2
v25
v25
C93
o54
6
o2
v8
v8
o2
n-2
o2
v10
v8
o2
v10
v10
o2
v24
v24
o2
n-2
o2
v26
v24
o2
v26
v26
C94
o54
6
o2
v8
v8
o2
n-2
o2
v11
v8
o2
v11
v11
o2
v24
v24
o2
n-2
o2
v27
v24
o2
v27
v27
C95
o54
6
o2
v8
v8
o2
n-2
o2
v12
v8
o2
v12
v12
o2
v24
v24
o2
n-2
o2
v28
v24
o2
v28
v28
C96
o54
6
o2
v8
v8
o2
n-2
o2
v13
v8
o2
v13
v13
o2
v24
v24
o2
n-2
o2
v29
v24
o2
v29
v29
C97
o54
6
o2
v8
v8
o2
n-2
o2
v14
v8
o2
v14
v14
o2
v24
v24
o2
n-2
o2
v30
v24
o2
v30
v30
C98
o54
6
o2
v8
v8
o2
n-2
o2
v15
v8
o2
v15
v15
o2
v24
v24
o2
n-2
o2
v31
v24
o2
v31
v31
C99
o54
6
o2
v9
v9
o2
n-2
o2
v10
v9
o2
v10
v10
o2
v25
v25
o2
n-2
o2
v26
v25
o2
v26
v26
C100
o54
6
o2
v9
v9
o2
n-2
o2
v11
v9
o2
v11
v11
o2
v25
v25
o2
n-2
o2
v27
v25
o2
v27
v27
C101
o54
6
o2
v9
v9
o2
n-2
o2
v12
v9
o2
v12
v12
o2
v25
v25
o2
n-2
o2
v28
v25
o2
v28
v28
C102
o54
6
o2
v9
v9
o2
n-2
o2
v13
v9
o2
v13
v13
o2
v25
v25
o2
n-2
o2
v29
v25
o2
v29
v29
C103
o54
6
o2
v9
v9
o2
n-2
o2
v14
v9
o2
v14
v14
o2
v25
v25
o2
n-2
o2
v30
v25
o2
v30
v30
C104
o54
6
o2
v9
v9
o2
n-2
o2
v15
v9
o2
v15
v15
o2
v25
v25
o2
n-2
o2
v31
v25
o2
v31
v31
C105
o54
6
o2
v10
v10
o2
n-2
o2
v11
v10
o2
v11
v11
o2
v26
v26
o2
n-2
o2
v27
v26
o2
v27
v27
C106
o54
6
o2
v10
v10
o2
n-2
o2
v12
v10
o2
v12
v12
o2
v26
v26
o2
n-2
o2
v28
v26
o2
v28
v28
C107
o54
6
o2
v10
v10
o2
n-2
o2
v13
v10
o2
v13
v13
o2
v26
v26
o2
n-2
o2
v29
v26
o2
v29
v29
C108
o54
6
o2
v10
v10
o2
n-2
o2
v14
v10
o2
v14
v14
o2
v26
v26
o2
n-2
o2
v30
v26
o2
v30
v30
C109
o54
6
o2
v10
v10
o2
n-2
o2
v15
v10
o2
v15
v15
o2
v26
v26
o2
n-2
o2
v31
v26
o2
v31
v31
C110
o54
6
o2
v11
v11
o2
n-2
o2
v12
v11
o2
v12
v12
o2
v27
v27
o2
n-2
o2
v28
v27
o2
v28
v28
C111
o54
6
o2
v11
v11
o2
n-2
o2
v13
v11
o2
v13
v13
o2
v27
v27
o2
n-2
o2
v29
v27
o2
v29
v29
C112
o54
6
o2
v11
v11
o2
n-2
o2
v14
v11
o2
v14
v14
o2
v27
v27
o2
n-2
o2
v30
v27
o2
v30
v30
C113
o54
6
o2
v11
v11
o2
n-2
o2
v15
v11
o2
v15
v15
o2
v27
v27
o2
n-2
o2
v31
v27
o2
v31
v31
C114
o54
6
o2
v12
v12
o2
n-2
o2
v13
v12
o2
v13
v13
o2
v28
v28
o2
n-2
o2
v29
v28
o2
v29
v29
C115
o54
6
o2
v12
v12
o2
n-2
o2
v14
v12
o2
v14
v14
o2
v28
v28
o2
n-2
o2
v30
v28
o2
v30
v30
C116
o54
6
o2
v12
v12
o2
n-2
o2
v15
v12
o2
v15
v15
o2
v28
v28
o2
n-2
o2
v31
v28
o2
v31
v31
C117
o54
6
o2
v13
v13
o2
n-2
o2
v14
v13
o2
v14
v14
o2
v29
v29
o2
n-2
o2
v30
v29
o2
v30
v30
C118
o54
6
o2
v13
v13
o2
n-2
o2
v15
v13
o2
v15
v15
o2
v29
v29
o2
n-2
o2
v31
v29
o2
v31
v31
C119
o54
6
o2
v14
v14
o2
n-2
o2
v15
v14
o2
v15
v15
o2
v30
v30
o2
n-2
o2
v31
v30
o2
v31
v31
C120
o2
v33
v32
C121
o54
6
o2
v0
v0
o2
n-2
o2
v1
v0
o2
v1
v1
o2
v16
v16
o2
n-2
o2
v17
v16
o2
v17
v17
C122
o54
6
o2
v0
v0
o2
n-2
o2
v2
v0
o2
v2
v2
o2
v16
v16
o2
n-2
o2
v18
v16
o2
v18
v18
C123
o54
6
o2
v0
v0
o2
n-2
o2
v3
v0
o2
v3
v3
o2
v16
v16
o2
n-2
o2
v19
v16
o2
v19
v19
C124
o54
6
o2
v0
v0
o2
n-2
o2
v4
v0
o2
v4
v4
o2
v16
v16
o2
n-2
o2
v20
v16
o2
v20
v20
C125
o54
6
o2
v0
v0
o2
n-2
o2
v5
v0
o2
v5
v5
o2
v16
v16
o2
n-2
o2
v21
v16
o2
v21
v21
C126
o54
6
o2
v0
v0
o2
n-2
o2
v6
v0
o2
v6
v6
o2
v16
v16
o2
n-2
o2
v22
v16
o2
v22
v22
C127
o54
6
o2
v0
v0
o2
n-2
o2
v7
v0
o2
v7
v7
o2
v16
v16
o2
n-2
o2
v23
v16
o2
v23
v23
C128
o54
6
o2
v0
v0
o2
n-2
o2
v8
v0
o2
v8
v8
o2
v16
v16
o2
n-2
o2
v24
v16
o2
v24
v24
C129
o54
6
o2
v0
v0
o2
n-2
o2
v9
v0
o2
v9
v9
o2
v16
v16
o2
n-2
o2
v25
v16
o2
v25
v25
C130
o54
6
o2
v0
v0
o2
n-2
o2
v10
v0
o2
v10
v10
o2
v16
v16
o2
n-2
o2
v26
v16
o2
v26
v26
C131
o54
6
o2
v0
v0
o2
n-2
o2
v11
v0
o2
v11
v11
o2
v16
v16
o2
n-2
o2
v27
v16
o2
v27
v27
C132
o54
6
o2
v0
v0
o2
n-2
o2
v12
v0
o2
v12
v12
o2
v16
v16
o2
n-2
o2
v28
v16
o2
v28
v28
C133
o54
6
o2
v0
v0
o2
n-2
o2
v13
v0
o2
v13
v13
o2
v16
v16
o2
n-2
o2
v29
v16
o2
v29
v29
C134
o54
6
o2
v0
v0
o2
n-2
o2
v14
v0
o2
v14
v14
o2
v16
v16
o2
n-2
o2
v30
v16
o2
v30
v30
C135
o54
6
o2
v0
v0
o2
n-2
o2
v15
v0
o2
v15
v15
o2
v16
v16
o2
n-2
o2
v31
v16
o2
v31
v31
C136
o54
6
o2
v1
v1
o2
n-2
o2
v2
v1
o2
v2
v2
o2
v17
v17
o2
n-2
o2
v18
v17
o2
v18
v18
C137
o54
6
o2
v1
v1
o2
n-2
o2
v3
v1
o2
v3
v3
o2
v17
v17
o2
n-2
o2
v19
v17
o2
v19
v19
C138
o54
6
o2
v1
v1
o2
n-2
o2
v4
v1
o2
v4
v4
o2
v17
v17
o2
n-2
o2
v20
v17
o2
v20
v20
C139
o54
6
o2
v1
v1
o2
n-2
o2
v5
v1
o2
v5
v5
o2
v17
v17
o2
n-2
o2
v21
v17
o2
v21
v21
C140
o54
6
o2
v1
v1
o2
n-2
o2
v6
v1
o2
v6
v6
o2
v17
v17
o2
n-2
o2
v22
v17
o2
v22
v22
C141
o54
6
o2
v1
v1
o2
n-2
o2
v7
v1
o2
v7
v7
o2
v17
v17
o2
n-2
o2
v23
v17
o2
v23
v23
C142
o54
6
o2
v1
v1
o2
n-2
o2
v8
v1
o2
v8
v8
o2
v17
v17
o2
n-2
o2
v24
v17
o2
v24
v24
C143
o54
6
o2
v1
v1
o2
n-2
o2
v9
v1
o2
v9
v9
o2
v17
v17
o2
n-2
o2
v25
v17
o2
v25
v25
C144
o54
6
o2
v1
v1
o2
n-2
o2
v10
v1
o2
v10
v10
o2
v17
v17
o2
n-2
o2
v26
v17
o2
v26
v26
C145
o54
6
o2
v1
v1
o2
n-2
o2
v11
v1
o2
v11
v11
o2
v17
v17
o2
n-2
o2
v27
v17
o2
v27
v27
C146
o54
6
o2
v1
v1
o2
n-2
o2
v12
v1
o2
v12
v12
o2
v17
v17
o2
n-2
o2
v28
v17
o2
v28
v28
C147
o54
6
o2
v1
v1
o2
n-2
o2
v13
v1
o2
v13
v13
o2
v17
v17
o2
n-2
o2
v29
v17
o2
v29
v29
C148
o54
6
o2
v1
v1
o2
n-2
o2
v14
v1
o2
v14
v14
o2
v17
v17
o2
n-2
o2
v30
v17
o2
v30
v30
C149
o54
6
o2
v1
v1
o2
n-2
o2
v15
v1
o2
v15
v15
o2
v17
v17
o2
n-2
o2
v31
v17
o2
v31
v31
C150
o54
6
o2
v2
v2
o2
n-2
o2
v3
v2
o2
v3
v3
o2
v18
v18
o2
n-2
o2
v19
v18
o2
v19
v19
C151
o54
6
o2
v2
v2
o2
n-2
o2
v4
v2
o2
v4
v4
o2
v18
v18
o2
n-2
o2
v20
v18
o2
v20
v20
C152
o54
6
o2
v2
v2
o2
n-2
o2
v5
v2
o2
v5
v5
o2
v18
v18
o2
n-2
o2
v21
v18
o2
v21
v21
C153
o54
6
o2
v2
v2
o2
n-2
o2
v6
v2
o2
v6
v6
o2
v18
v18
o2
n-2
o2
v22
v18
o2
v22
v22
C154
o54
6
o2
v2
v2
o2
n-2
o2
v7
v2
o2
v7
v7
o2
v18
v18
o2
n-2
o2
v23
v18
o2
v23
v23
C155
o54
6
o2
v2
v2
o2
n-2
o2
v8
v2
o2
v8
v8
o2
v18
v18
o2
n-2
o2
v24
v18
o2
v24
v24
C156
o54
6
o2
v2
v2
o2
n-2
o2
v9
v2
o2
v9
v9
o2
v18
v18
o2
n-2
o2
v25
v18
o2
v25
v25
C157
o54
6
o2
v2
v2
o2
n-2
o2
v10
v2
o2
v10
v10
o2
v18
v18
o2
n-2
o2
v26
v18
o2
v26
v26
C158
o54
6
o2
v2
v2
o2
n-2
o2
v11
v2
o2
v11
v11
o2
v18
v18
o2
n-2
o2
v27
v18
o2
v27
v27
C159
o54
6
o2
v2
v2
o2
n-2
o2
v12
v2
o2
v12
v12
o2
v18
v18
o2
n-2
o2
v28
v18
o2
v28
v28
C160
o54
6
o2
v2
v2
o2
n-2
o2
v13
v2
o2
v13
v13
o2
v18
v18
o2
n-2
o2
v29
v18
o2
v29
v29
C161
o54
6
o2
v2
v2
o2
n-2
o2
v14
v2
o2
v14
v14
o2
v18
v18
o2
n-2
o2
v30
v18
o2
v30
v30
C162
o54
6
o2
v2
v2
o2
n-2
o2
v15
v2
o2
v15
v15
o2
v18
v18
o2
n-2
o2
v31
v18
o2
v31
v31
C163
o54
6
o2
v3
v3
o2
n-2
o2
v4
v3
o2
v4
v4
o2
v19
v19
o2
n-2
o2
v20
v19
o2
v20
v20
C164
o54
6
o2
v3
v3
o2
n-2
o2
v5
v3
o2
v5
v5
o2
v19
v19
o2
n-2
o2
v21
v19
o2
v21
v21
C165
o54
6
o2
v3
v3
o2
n-2
o2
v6
v3
o2
v6
v6
o2
v19
v19
o2
n-2
o2
v22
v19
o2
v22
v22
C166
o54
6
o2
v3
v3
o2
n-2
o2
v7
v3
o2
v7
v7
o2
v19
v19
o2
n-2
o2
v23
v19
o2
v23
v23
C167
o54
6
o2
v3
v3
o2
n-2
o2
v8
v3
o2
v8
v8
o2
v19
v19
o2
n-2
o2
v24
v19
o2
v24
v24
C168
o54
6
o2
v3
v3
o2
n-2
o2
v9
v3
o2
v9
v9
o2
v19
v19
o2
n-2
o2
v25
v19
o2
v25
v25
C169
o54
6
o2
v3
v3
o2
n-2
o2
v10
v3
o2
v10
v10
o2
v19
v19
o2
n-2
o2
v26
v19
o2
v26
v26
C170
o54
6
o2
v3
v3
o2
n-2
o2
v11
v3
o2
v11
v11
o2
v19
v19
o2
n-2
o2
v27
v19
o2
v27
v27
C171
o54
6
o2
v3
v3
o2
n-2
o2
v12
v3
o2
v12
v12
o2
v19
v19
o2
n-2
o2
v28
v19
o2
v28
v28
C172
o54
6
o2
v3
v3
o2
n-2
o2
v13
v3
o2
v13
v13
o2
v19
v19
o2
n-2
o2
v29
v19
o2
v29
v29
C173
o54
6
o2
v3
v3
o2
n-2
o2
v14
v3
o2
v14
v14
o2
v19
v19
o2
n-2
o2
v30
v19
o2
v30
v30
C174
o54
6
o2
v3
v3
o2
n-2
o2
v15
v3
o2
v15
v15
o2
v19
v19
o2
n-2
o2
v31
v19
o2
v31
v31
C175
o54
6
o2
v4
v4
o2
n-2
o2
v5
v4
o2
v5
v5
o2
v20
v20
o2
n-2
o2
v21
v20
o2
v21
v21
C176
o54
6
o2
v4
v4
o2
n-2
o2
v6
v4
o2
v6
v6
o2
v20
v20
o2
n-2
o2
v22
v20
o2
v22
v22
C177
o54
6
o2
v4
v4
o2
n-2
o2
v7
v4
o2
v7
v7
o2
v20
v20
o2
n-2
o2
v23
v20
o2
v23
v23
C178
o54
6
o2
v4
v4
o2
n-2
o2
v8
v4
o2
v8
v8
o2
v20
v20
o2
n-2
o2
v24
v20
o2
v24
v24
C179
o54
6
o2
v4
v4
o2
n-2
o2
v9
v4
o2
v9
v9
o2
v20
v20
o2
n-2
o2
v25
v20
o2
v25
v25
C180
o54
6
o2
v4
v4
o2
n-2
o2
v10
v4
o2
v10
v10
o2
v20
v20
o2
n-2
o2
v26
v20
o2
v26
v26
C181
o54
6
o2
v4
v4
o2
n-2
o2
v11
v4
o2
v11
v11
o2
v20
v20
o2
n-2
o2
v27
v20
o2
v27
v27
C182
o54
6
o2
v4
v4
o2
n-2
o2
v12
v4
o2
v12
v12
o2
v20
v20
o2
n-2
o2
v28
v20
o2
v28
v28
C183
o54
6
o2
v4
v4
o2
n-2
o2
v13
v4
o2
v13
v13
o2
v20
v20
o2
n-2
o2
v29
v20
o2
v29
v29
C184
o54
6
o2
v4
v4
o2
n-2
o2
v14
v4
o2
v14
v14
o2
v20
v20
o2
n-2
o2
v30
v20
o2
v30
v30
C185
o54
6
o2
v4
v4
o2
n-2
o2
v15
v4
o2
v15
v15
o2
v20
v20
o2
n-2
o2
v31
v20
o2
v31
v31
C186
o54
6
o2
v5
v5
o2
n-2
o2
v6
v5
o2
v6
v6
o2
v21
v21
o2
n-2
o2
v22
v21
o2
v22
v22
C187
o54
6
o2
v5
v5
o2
n-2
o2
v7
v5
o2
v7
v7
o2
v21
v21
o2
n-2
o2
v23
v21
o2
v23
v23
C188
o54
6
o2
v5
v5
o2
n-2
o2
v8
v5
o2
v8
v8
o2
v21
v21
o2
n-2
o2
v24
v21
o2
v24
v24
C189
o54
6
o2
v5
v5
o2
n-2
o2
v9
v5
o2
v9
v9
o2
v21
v21
o2
n-2
o2
v25
v21
o2
v25
v25
C190
o54
6
o2
v5
v5
o2
n-2
o2
v10
v5
o2
v10
v10
o2
v21
v21
o2
n-2
o2
v26
v21
o2
v26
v26
C191
o54
6
o2
v5
v5
o2
n-2
o2
v11
v5
o2
v11
v11
o2
v21
v21
o2
n-2
o2
v27
v21
o2
v27
v27
C192
o54
6
o2
v5
v5
o2
n-2
o2
v12
v5
o2
v12
v12
o2
v21
v21
o2
n-2
o2
v28
v21
o2
v28
v28
C193
o54
6
o2
v5
v5
o2
n-2
o2
v13
v5
o2
v13
v13
o2
v21
v21
o2
n-2
o2
v29
v21
o2
v29
v29
C194
o54
6
o2
v5
v5
o2
n-2
o2
v14
v5
o2
v14
v14
o2
v21
v21
o2
n-2
o2
v30
v21
o2
v30
v30
C195
o54
6
o2
v5
v5
o2
n-2
o2
v15
v5
o2
v15
v15
o2
v21
v21
o2
n-2
o2
v31
v21
o2
v31
v31
C196
o54
6
o2
v6
v6
o2
n-2
o2
v7
v6
o2
v7
v7
o2
v22
v22
o2
n-2
o2
v23
v22
o2
v23
v23
C197
o54
6
o2
v6
v6
o2
n-2
o2
v8
v6
o2
v8
v8
o2
v22
v22
o2
n-2
o2
v24
v22
o2
v24
v24
C198
o54
6
o2
v6
v6
o2
n-2
o2
v9
v6
o2
v9
v9
o2
v22
v22
o2
n-2
o2
v25
v22
o2
v25
v25
C199
o54
6
o2
v6
v6
o2
n-2
o2
v10
v6
o2
v10
v10
o2
v22
v22
o2
n-2
o2
v26
v22
o2
v26
v26
C200
o54
6
o2
v6
v6
o2
n-2
o2
v11
v6
o2
v11
v11
o2
v22
v22
o2
n-2
o2
v27
v22
o2
v27
v27
C201
o54
6
o2
v6
v6
o2
n-2
o2
v12
v6
o2
v12
v12
o2
v22
v22
o2
n-2
o2
v28
v22
o2
v28
v28
C202
o54
6
o2
v6
v6
o2
n-2
o2
v13
v6
o2
v13
v13
o2
v22
v22
o2
n-2
o2
v29
v22
o2
v29
v29
C203
o54
6
o2
v6
v6
o2
n-2
o2
v14
v6
o2
v14
v14
o2
v22
v22
o2
n-2
o2
v30
v22
o2
v30
v30
C204
o54
6
o2
v6
v6
o2
n-2
o2
v15
v6
o2
v15
v15
o2
v22
v22
o2
n-2
o2
v31
v22
o2
v31
v31
C205
o54
6
o2
v7
v7
o2
n-2
o2
v8
v7
o2
v8
v8
o2
v23
v23
o2
n-2
o2
v24
v23
o2
v24
v24
C206
o54
6
o2
v7
v7
o2
n-2
o2
v9
v7
o2
v9
v9
o2
v23
v23
o2
n-2
o2
v25
v23
o2
v25
v25
C207
o54
6
o2
v7
v7
o2
n-2
o2
v10
v7
o2
v10
v10
o2
v23
v23
o2
n-2
o2
v26
v23
o2
v26
v26
C208
o54
6
o2
v7
v7
o2
n-2
o2
v11
v7
o2
v11
v11
o2
v23
v23
o2
n-2
o2
v27
v23
o2
v27
v27
C209
o54
6
o2
v7
v7
o2
n-2
o2
v12
v7
o2
v12
v12
o2
v23
v23
o2
n-2
o2
v28
v23
o2
v28
v28
C210
o54
6
o2
v7
v7
o2
n-2
o2
v13
v7
o2
v13
v13
o2
v23
v23
o2
n-2
o2
v29
v23
o2
v29
v29
C211
o54
6
o2
v7
v7
o2
n-2
o2
v14
v7
o2
v14
v14
o2
v23
v23
o2
n-2
o2
v30
v23
o2
v30
v30
C212
o54
6
o2
v7
v7
o2
n-2
o2
v15
v7
o2
v15
v15
o2
v23
v23
o2
n-2
o2
v31
v23
o2
v31
v31
C213
o54
6
o2
v8
v8
o2
n-2
o2
v9
v8
o2
v9
v9
o2
v24
v24
o2
n-2
o2
v25
v24
o2
v25
v25
C214
o54
6
o2
v8
v8
o2
n-2
o2
v10
v8
o2
v10
v10
o2
v24
v24
o2
n-2
o2
v26
v24
o2
v26
v26
C215
o54
6
o2
v8
v8
o2
n-2
o2
v11
v8
o2
v11
v11
o2
v24
v24
o2
n-2
o2
v27
v24
o2
v27
v27
C216
o54
6
o2
v8
v8
o2
n-2
o2
v12
v8
o2
v12
v12
o2
v24
v24
o2
n-2
o2
v28
v24
o2
v28
v28
C217
o54
6
o2
v8
v8
o2
n-2
o2
v13
v8
o2
v13
v13
o2
v24
v24
o2
n-2
o2
v29
v24
o2
v29
v29
C218
o54
6
o2
v8
v8
o2
n-2
o2
v14
v8
o2
v14
v14
o2
v24
v24
o2
n-2
o2
v30
v24
o2
v30
v30
C219
o54
6
o2
v8
v8
o2
n-2
o2
v15
v8
o2
v15
v15
o2
v24
v24
o2
n-2
o2
v31
v24
o2
v31
v31
C220
o54
6
o2
v9
v9
o2
n-2
o2
v10
v9
o2
v10
v10
o2
v25
v25
o2
n-2
o2
v26
v25
o2
v26
v26
C221
o54
6
o2
v9
v9
o2
n-2
o2
v11
v9
o2
v11
v11
o2
v25
v25
o2
n-2
o2
v27
v25
o2
v27
v27
C222
o54
6
o2
v9
v9
o2
n-2
o2
v12
v9
o2
v12
v12
o2
v25
v25
o2
n-2
o2
v28
v25
o2
v28
v28
C223
o54
6
o2
v9
v9
o2
n-2
o2
v13
v9
o2
v13
v13
o2
v25
v25
o2
n-2
o2
v29
v25
o2
v29
v29
C224
o54
6
o2
v9
v9
o2
n-2
o2
v14
v9
o2
v14
v14
o2
v25
v25
o2
n-2
o2
v30
v25
o2
v30
v30
C225
o54
6
o2
v9
v9
o2
n-2
o2
v15
v9
o2
v15
v15
o2
v25
v25
o2
n-2
o2
v31
v25
o2
v31
v31
C226
o54
6
o2
v10
v10
o2
n-2
o2
v11
v10
o2
v11
v11
o2
v26
v26
o2
n-2
o2
v27
v26
o2
v27
v27
C227
o54
6
o2
v10
v10
o2
n-2
o2
v12
v10
o2
v12
v12
o2
v26
v26
o2
n-2
o2
v28
v26
o2
v28
v28
C228
o54
6
o2
v10
v10
o2
n-2
o2
v13
v10
o2
v13
v13
o2
v26
v26
o2
n-2
o2
v29
v26
o2
v29
v29
C229
o54
6
o2
v10
v10
o2
n-2
o2
v14
v10
o2
v14
v14
o2
v26
v26
o2
n-2
o2
v30
v26
o2
v30
v30
C230
o54
6
o2
v10
v10
o2
n-2
o2
v15
v10
o2
v15
v15
o2
v26
v26
o2
n-2
o2
v31
v26
o2
v31
v31
C231
o54
6
o2
v11
v11
o2
n-2
o2
v12
v11
o2
v12
v12
o2
v27
v27
o2
n-2
o2
v28
v27
o2
v28
v28
C232
o54
6
o2
v11
v11
o2
n-2
o2
v13
v11
o2
v13
v13
o2
v27
v27
o2
n-2
o2
v29
v27
o2
v29
v29
C233
o54
6
o2
v11
v11
o2
n-2
o2
v14
v11
o2
v14
v14
o2
v27
v27
o2
n-2
o2
v30
v27
o2
v30
v30
C234
o54
6
o2
v11
v11
o2
n-2
o2
v15
v11
o2
v15
v15
o2
v27
v27
o2
n-2
o2
v31
v27
o2
v31
v31
C235
o54
6
o2
v12
v12
o2
n-2
o2
v13
v12
o2
v13
v13
o2
v28
v28
o2
n-2
o2
v29
v28
o2
v29
v29
C236
o54
6
o2
v12
v12
o2
n-2
o2
v14
v12
o2
v14
v14
o2
v28
v28
o2
n-2
o2
v30
v28
o2
v30
v30
C237
o54
6
o2
v12
v12
o2
n-2
o2
v15
v12
o2
v15
v15
o2
v28
v28
o2
n-2
o2
v31
v28
o2
v31
v31
C238
o54
6
o2
v13
v13
o2
n-2
o2
v14
v13
o2
v14
v14
o2
v29
v29
o2
n-2
o2
v30
v29
o2
v30
v30
C239
o54
6
o2
v13
v13
o2
n-2
o2
v15
v13
o2
v15
v15
o2
v29
v29
o2
n-2
o2
v31
v29
o2
v31
v31
C240
o54
6
o2
v14
v14
o2
n-2
o2
v15
v14
o2
v15
v15
o2
v30
v30
o2
n-2
o2
v31
v30
o2
v31
v31
C241
n0
O0 0
n0
x35
0 0
1 0
2 0
3 0
4 0
5 0
6 0
7 0
8 0
9 0
10 0
11 0
12 0
13 0
14 0
15 0
16 0
17 0
18 0
19 0
20 0
21 0
22 0
23 0
24 0
25 0
26 0
27 0
28 0
29 0
30 0
31 0
32 0
33 0
34 0
r
2 0
2 0
2 0
2 0
2 0
2 0
2 0
2 0
2 0
2 0
2 0
2 0
2 0
2 0
2 0
2 0
2 0
2 0
2 0
2 0
2 0
2 0
2 0
2 0
2 0
2 0
2 0
2 0
2 0
2 0
2 0
2 0
2 0
2 0
2 0
2 0
2 0
2 0
2 0
2 0
2 0
2 0
2 0
2 0
2 0
2 0
2 0
2 0
2 0
2 0
2 0
2 0
2 0
2 0
2 0
2 0
2 0
2 0
2 0
2 0
2 0
2 0
2 0
2 0
2 0
2 0
2 0
2 0
2 0
2 0
2 0
2 0
2 0
2 0
2 0
2 0
2 0
2 0
2 0
2 0
2 0
2 0
2 0
2 0
2 0
2 0
2 0
2 0
2 0
2 0
2 0
2 0
2 0
2 0
2 0
2 0
2 0
2 0
2 0
2 0
2 0
2 0
2 0
2 0
2 0
2 0
2 0
2 0
2 0
2 0
2 0
2 0
2 0
2 0
2 0
2 0
2 0
2 0
2 0
2 0
2 1
1 1
1 1
1 1
1 1
1 1
1 1
1 1
1 1
1 1
1 1
1 1
1 1
1 1
1 1
1 1
1 1
1 1
1 1
1 1
1 1
1 1
1 1
1 1
1 1
1 1
1 1
1 1
1 1
1 1
1 1
1 1
1 1
1 1
1 1
1 1
1 1
1 1
1 1
1 1
1 1
1 1
1 1
1 1
1 1
1 1
1 1
1 1
1 1
1 1
1 1
1 1
1 1
1 1
1 1
1 1
1 1
1 1
1 1
1 1
1 1
1 1
1 1
1 1
1 1
1 1
1 1
1 1
1 1
1 1
1 1
1 1
1 1
1 1
1 1
1 1
1 1
1 1
1 1
1 1
1 1
1 1
1 1
1 1
1 1
1 1
1 1
1 1
1 1
1 1
1 1
1 1
1 1
1 1
1 1
1 1
1 1
1 1
1 1
1 1
1 1
1 1
1 1
1 1
1 1
1 1
1 1
1 1
1 1
1 1
1 1
1 1
1 1
1 1
1 1
1 1
1 1
1 1
1 1
1 1
1 1
4 1
b
0 0 1
0 0 1
0 0 1
0 0 1
0 0 1
0 0 1
0 0 1
0 0 1
0 0 1
0 0 1
0 0 1
0 0 1
0 0 1
0 0 1
0 0 1
0 0 1
0 0 1
0 0 1
0 0 1
0 0 1
0 0 1
0 0 1
0 0 1
0 0 1
0 0 1
0 0 1
0 0 1
0 0 1
0 0 1
0 0 1
0 0 1
0 0 1
2 0
2 0
2 0
k34
30
60
90
120
150
180
210
240
270
300
330
360
390
420
450
480
510
540
570
600
630
660
690
720
750
780
810
840
870
900
930
960
1081
1082
J0 5
0 0
1 0
16 0
17 0
32 -1
J1 5
0 0
2 0
16 0
18 0
32 -1
J2 5
0 0
3 0
16 0
19 0
32 -1
J3 5
0 0
4 0
16 0
20 0
32 -1
J4 5
0 0
5 0
16 0
21 0
32 -1
J5 5
0 0
6 0
16 0
22 0
32 -1
J6 5
0 0
7 0
16 0
23 0
32 -1
J7 5
0 0
8 0
16 0
24 0
32 -1
J8 5
0 0
9 0
16 0
25 0
32 -1
J9 5
0 0
10 0
16 0
26 0
32 -1
J10 5
0 0
11 0
16 0
27 0
32 -1
J11 5
0 0
12 0
16 0
28 0
32 -1
J12 5
0 0
13 0
16 0
29 0
32 -1
J13 5
0 0
14 0
16 0
30 0
32 -1
J14 5
0 0
15 0
16 0
31 0
32 -1
J15 5
1 0
2 0
17 0
18 0
32 -1
J16 5
1 0
3 0
17 0
19 0
32 -1
J17 5
1 0
4 0
17 0
20 0
32 -1
J18 5
1 0
5 0
17 0
21 0
32 -1
J19 5
1 0
6 0
17 0
22 0
32 -1
J20 5
1 0
7 0
17 0
23 0
32 -1
J21 5
1 0
8 0
17 0
24 0
32 -1
J22 5
1 0
9 0
17 0
25 0
32 -1
J23 5
1 0
10 0
17 0
26 0
32 -1
J24 5
1 0
11 0
17 0
27 0
32 -1
J25 5
1 0
12 0
17 0
28 0
32 -1
J26 5
1 0
13 0
17 0
29 0
32 -1
J27 5
1 0
14 0
17 0
30 0
32 -1
J28 5
1 0
15 0
17 0
31 0
32 -1
J29 5
2 0
3 0
18 0
19 0
32 -1
J30 5
2 0
4 0
18 0
20 0
32 -1
J31 5
2 0
5 0
18 0
21 0
32 -1
J32 5
2 0
6 0
18 0
22 0
32 -1
J33 5
2 0
7 0
18 0
23 0
32 -1
J34 5
2 0
8 0
18 0
24 0
32 -1
J35 5
2 0
9 0
18 0
25 0
32 -1
J36 5
2 0
10 0
18 0
26 0
32 -1
J37 5
2 0
11 0
18 0
27 0
32 -1
J38 5
2 0
12 0
18 0
28 0
32 -1
J39 5
2 0
13 0
18 0
29 0
32 -1
J40 5
2 0
14 0
18 0
30 0
32 -1
J41 5
2 0
15 0
18 0
31 0
32 -1
J42 5
3 0
4 0
19 0
20 0
32 -1
J43 5
3 0
5 0
19 0
21 0
32 -1
J44 5
3 0
6 0
19 0
22 0
32 -1
J45 5
3 0
7 0
19 0
23 0
32 -1
J46 5
3 0
8 0
19 0
24 0
32 -1
J47 5
3 0
9 0
19 0
25 0
32 -1
J48 5
3 0
10 0
19 0
26 0
32 -1
J49 5
3 0
11 0
19 0
27 0
32 -1
J50 5
3 0
12 0
19 0
28 0
32 -1
J51 5
3 0
13 0
19 0
29 0
32 -1
J52 5
3 0
14 0
19 0
30 0
32 -1
J53 5
3 0
15 0
19 0
31 0
32 -1
J54 5
4 0
5 0
20 0
21 0
32 -1
J55 5
4 0
6 0
20 0
22 0
32 -1
J56 5
4 0
7 0
20 0
23 0
32 -1
J57 5
4 0
8 0
20 0
24 0
32 -1
J58 5
4 0
9 0
20 0
25 0
32 -1
J59 5
4 0
10 0
20 0
26 0
32 -1
J60 5
4 0
11 0
20 0
27 0
32 -1
J61 5
4 0
12 0
20 0
28 0
32 -1
J62 5
4 0
13 0
20 0
29 0
32 -1
J63 5
4 0
14 0
20 0
30 0
32 -1
J64 5
4 0
15 0
20 0
31 0
32 -1
J65 5
5 0
6 0
21 0
22 0
32 -1
J66 5
5 0
7 0
21 0
23 0
32 -1
J67 5
5 0
8 0
21 0
24 0
32 -1
J68 5
5 0
9 0
21 0
25 0
32 -1
J69 5
5 0
10 0
21 0
26 0
32 -1
J70 5
5 0
11 0
21 0
27 0
32 -1
J71 5
5 0
12 0
21 0
28 0
32 -1
J72 5
5 0
13 0
21 0
29 0
32 -1
J73 5
5 0
14 0
21 0
30 0
32 -1
J74 5
5 0
15 0
21 0
31 0
32 -1
J75 5
6 0
7 0
22 0
23 0
32 -1
J76 5
6 0
8 0
22 0
24 0
32 -1
J77 5
6 0
9 0
22 0
25 0
32 -1
J78 5
6 0
10 0
22 0
26 0
32 -1
J79 5
6 0
11 0
22 0
27 0
32 -1
J80 5
6 0
12 0
22 0
28 0
32 -1
J81 5
6 0
13 0
22 0
29 0
32 -1
J82 5
6 0
14 0
22 0
30 0
32 -1
J83 5
6 0
15 0
22 0
31 0
32 -1
J84 5
7 0
8 0
23 0
24 0
32 -1
J85 5
7 0
9 0
23 0
25 0
32 -1
J86 5
7 0
10 0
23 0
26 0
32 -1
J87 5
7 0
11 0
23 0
27 0
32 -1
J88 5
7 0
12 0
23 0
28 0
32 -1
J89 5
7 0
13 0
23 0
29 0
32 -1
J90 5
7 0
14 0
23 0
30 0
32 -1
J91 5
7 0
15 0
23 0
31 0
32 -1
J92 5
8 0
9 0
24 0
25 0
32 -1
J93 5
8 0
10 0
24 0
26 0
32 -1
J94 5
8 0
11 0
24 0
27 0
32 -1
J95 5
8 0
12 0
24 0
28 0
32 -1
J96 5
8 0
13 0
24 0
29 0
32 -1
J97 5
8 0
14 0
24 0
30 0
32 -1
J98 5
8 0
15 0
24 0
31 0
32 -1
J99 5
9 0
10 0
25 0
26 0
32 -1
J100 5
9 0
11 0
25 0
27 0
32 -1
J101 5
9 0
12 0
25 0
28 0
32 -1
J102 5
9 0
13 0
25 0
29 0
32 -1
J103 5
9 0
14 0
25 0
30 0
32 -1
J104 5
9 0
15 0
25 0
31 0
32 -1
J105 5
10 0
11 0
26 0
27 0
32 -1
J106 5
10 0
12 0
26 0
28 0
32 -1
J107 5
10 0
13 0
26 0
29 0
32 -1
J108 5
10 0
14 0
26 0
30 0
32 -1
J109 5
10 0
15 0
26 0
31 0
32 -1
J110 5
11 0
12 0
27 0
28 0
32 -1
J111 5
11 0
13 0
27 0
29 0
32 -1
J112 5
11 0
14 0
27 0
30 0
32 -1
J113 5
11 0
15 0
27 0
31 0
32 -1
J114 5
12 0
13 0
28 0
29 0
32 -1
J115 5
12 0
14 0
28 0
30 0
32 -1
J116 5
12 0
15 0
28 0
31 0
32 -1
J117 5
13 0
14 0
29 0
30 0
32 -1
J118 5
13 0
15 0
29 0
31 0
32 -1
J119 5
14 0
15 0
30 0
31 0
32 -1
J120 2
32 0
33 0
J121 4
0 0
1 0
16 0
17 0
J122 4
0 0
2 0
16 0
18 0
J123 4
0 0
3 0
16 0
19 0
J124 4
0 0
4 0
16 0
20 0
J125 4
0 0
5 0
16 0
21 0
J126 4
0 0
6 0
16 0
22 0
J127 4
0 0
7 0
16 0
23 0
J128 4
0 0
8 0
16 0
24 0
J129 4
0 0
9 0
16 0
25 0
J130 4
0 0
10 0
16 0
26 0
J131 4
0 0
11 0
16 0
27 0
J132 4
0 0
12 0
16 0
28 0
J133 4
0 0
13 0
16 0
29 0
J134 4
0 0
14 0
16 0
30 0
J135 4
0 0
15 0
16 0
31 0
J136 4
1 0
2 0
17 0
18 0
J137 4
1 0
3 0
17 0
19 0
J138 4
1 0
4 0
17 0
20 0
J139 4
1 0
5 0
17 0
21 0
J140 4
1 0
6 0
17 0
22 0
J141 4
1 0
7 0
17 0
23 0
J142 4
1 0
8 0
17 0
24 0
J143 4
1 0
9 0
17 0
25 0
J144 4
1 0
10 0
17 0
26 0
J145 4
1 0
11 0
17 0
27 0
J146 4
1 0
12 0
17 0
28 0
J147 4
1 0
13 0
17 0
29 0
J148 4
1 0
14 0
17 0
30 0
J149 4
1 0
15 0
17 0
31 0
J150 4
2 0
3 0
18 0
19 0
J151 4
2 0
4 0
18 0
20 0
J152 4
2 0
5 0
18 0
21 0
J153 4
2 0
6 0
18 0
22 0
J154 4
2 0
7 0
18 0
23 0
J155 4
2 0
8 0
18 0
24 0
J156 4
2 0
9 0
18 0
25 0
J157 4
2 0
10 0
18 0
26 0
J158 4
2 0
11 0
18 0
27 0
J159 4
2 0
12 0
18 0
28 0
J160 4
2 0
13 0
18 0
29 0
J161 4
2 0
14 0
18 0
30 0
J162 4
2 0
15 0
18 0
31 0
J163 4
3 0
4 0
19 0
20 0
J164 4
3 0
5 0
19 0
21 0
J165 4
3 0
6 0
19 0
22 0
J166 4
3 0
7 0
19 0
23 0
J167 4
3 0
8 0
19 0
24 0
J168 4
3 0
9 0
19 0
25 0
J169 4
3 0
10 0
19 0
26 0
J170 4
3 0
11 0
19 0
27 0
J171 4
3 0
12 0
19 0
28 0
J172 4
3 0
13 0
19 0
29 0
J173 4
3 0
14 0
19 0
30 0
J174 4
3 0
15 0
19 0
31 0
J175 4
4 0
5 0
20 0
21 0
J176 4
4 0
6 0
20 0
22 0
J177 4
4 0
7 0
20 0
23 0
J178 4
4 0
8 0
20 0
24 0
J179 4
4 0
9 0
20 0
25 0
J180 4
4 0
10 0
20 0
26 0
J181 4
4 0
11 0
20 0
27 0
J182 4
4 0
12 0
20 0
28 0
J183 4
4 0
13 0
20 0
29 0
J184 4
4 0
14 0
20 0
30 0
J185 4
4 0
15 0
20 0
31 0
J186 4
5 0
6 0
21 0
22 0
J187 4
5 0
7 0
21 0
23 0
J188 4
5 0
8 0
21 0
24 0
J189 4
5 0
9 0
21 0
25 0
J190 4
5 0
10 0
21 0
26 0
J191 4
5 0
11 0
21 0
27 0
J192 4
5 0
12 0
21 0
28 0
J193 4
5 0
13 0
21 0
29 0
J194 4
5 0
14 0
21 0
30 0
J195 4
5 0
15 0
21 0
31 0
J196 4
6 0
7 0
22 0
23 0
J197 4
6 0
8 0
22 0
24 0
J198 4
6 0
9 0
22 0
25 0
J199 4
6 0
10 0
22 0
26 0
J200 4
6 0
11 0
22 0
27 0
J201 4
6 0
12 0
22 0
28 0
J202 4
6 0
13 0
22 0
29 0
J203 4
6 0
14 0
22 0
30 0
J204 4
6 0
15 0
22 0
31 0
J205 4
7 0
8 0
23 0
24 0
J206 4
7 0
9 0
23 0
25 0
J207 4
7 0
10 0
23 0
26 0
J208 4
7 0
11 0
23 0
27 0
J209 4
7 0
12 0
23 0
28 0
J210 4
7 0
13 0
23 0
29 0
J211 4
7 0
14 0
23 0
30 0
J212 4
7 0
15 0
23 0
31 0
J213 4
8 0
9 0
24 0
25 0
J214 4
8 0
10 0
24 0
26 0
J215 4
8 0
11 0
24 0
27 0
J216 4
8 0
12 0
24 0
28 0
J217 4
8 0
13 0
24 0
29 0
J218 4
8 0
14 0
24 0
30 0
J219 4
8 0
15 0
24 0
31 0
J220 4
9 0
10 0
25 0
26 0
J221 4
9 0
11 0
25 0
27 0
J222 4
9 0
12 0
25 0
28 0
J223 4
9 0
13 0
25 0
29 0
J224 4
9 0
14 0
25 0
30 0
J225 4
9 0
15 0
25 0
31 0
J226 4
10 0
11 0
26 0
27 0
J227 4
10 0
12 0
26 0
28 0
J228 4
10 0
13 0
26 0
29 0
J229 4
10 0
14 0
26 0
30 0
J230 4
10 0
15 0
26 0
31 0
J231 4
11 0
12 0
27 0
28 0
J232 4
11 0
13 0
27 0
29 0
J233 4
11 0
14 0
27 0
30 0
J234 4
11 0
15 0
27 0
31 0
J235 4
12 0
13 0
28 0
29 0
J236 4
12 0
14 0
28 0
30 0
J237 4
12 0
15 0
28 0
31 0
J238 4
13 0
14 0
29 0
30 0
J239 4
13 0
15 0
29 0
31 0
J240 4
14 0
15 0
30 0
31 0
J241 1
34 1
G0 1
33 1
